10000   81   61   57   59   74   68   88   49   77   
66   10000   33   29   47   84   94   54   66   89   
94   95   10000   92   18   95   8   20   63   36   
39   5   15   10000   25   66   96   45   85   21   
95   86   76   95   10000   43   3   48   79   68   
72   33   79   39   31   10000   87   21   33   92   
17   7   5   81   82   86   10000   6   54   88   
76   96   16   81   52   27   96   10000   28   98   
96   43   8   80   90   99   47   27   10000   44   
51   74   99   31   87   29   90   76   16   10000   
